\ Model _copy
\ LP format - for model browsing. Use MPS format to capture full model detail.
Minimize
 
Subject To
 R677: - s[13] + s[16] <= -1
 R679: s[13] - s[14] <= -1
 R681: s[14] - s[15] <= -1
 R683: s[15] - s[16] <= -1
Bounds
 s[13] free
 s[14] free
 s[15] free
 s[16] free
Generals
 s[13] s[14] s[15] s[16]
End
